30 5
98 54
85 95
90 33
22 30
88 67
74 40
4 75
10 45
57 74
32 6
19 68
52 53
8 40
50 42
57 57
99 48
4 51
19 84
88 69
16 36
16 47
49 65
41 83
96 40
67 73
38 29
74 49
38 8
2 35
6 46
1 338
1 291
1 325
1 348
1 254
